\* berth *\
Minimize
OBJ: 489 mid_for_y_0 + 583 mid_for_y_1 + 429 mid_for_y_10 + 415 mid_for_y_11
 + 568 mid_for_y_12 + 462 mid_for_y_13 + 549 mid_for_y_14 + 518 mid_for_y_15
 + 447 mid_for_y_16 + 525 mid_for_y_17 + 490 mid_for_y_18 + 435 mid_for_y_19
 + 506 mid_for_y_2 + 463 mid_for_y_20 + 578 mid_for_y_21 + 427 mid_for_y_22
 + 409 mid_for_y_23 + 412 mid_for_y_24 + 462 mid_for_y_3 + 425 mid_for_y_4
 + 479 mid_for_y_5 + 477 mid_for_y_6 + 555 mid_for_y_7 + 564 mid_for_y_8
 + 577 mid_for_y_9 + 467 mid_x_0 + 443 mid_x_1 + 421 mid_x_10 + 491 mid_x_11
 + 466 mid_x_12 + 454 mid_x_13 + 533 mid_x_14 + 540 mid_x_15 + 586 mid_x_16
 + 522 mid_x_17 + 485 mid_x_18 + 588 mid_x_19 + 423 mid_x_2 + 482 mid_x_20
 + 514 mid_x_21 + 572 mid_x_22 + 504 mid_x_23 + 447 mid_x_24 + 575 mid_x_3
 + 540 mid_x_4 + 565 mid_x_5 + 422 mid_x_6 + 543 mid_x_7 + 412 mid_x_8
 + 409 mid_x_9
Subject To
_C1: mid_x_0 >= 0
_C10: - mid_x_1 - x_1 <= -311
_C100: mid_for_y_12 >= 0
_C101: mid_for_y_12 - y_12 >= -69
_C102: x_12 <= 613
_C103: y_12 >= 69
_C104: x_12 >= 0
_C105: mid_x_13 >= 0
_C106: - mid_x_13 - x_13 <= -327
_C107: mid_x_13 - x_13 >= -327
_C108: mid_for_y_13 >= 0
_C109: mid_for_y_13 - y_13 >= -105
_C11: mid_x_1 - x_1 >= -311
_C110: x_13 <= 614
_C111: y_13 >= 105
_C112: x_13 >= 0
_C113: mid_x_14 >= 0
_C114: - mid_x_14 - x_14 <= -261
_C115: mid_x_14 - x_14 >= -261
_C116: mid_for_y_14 >= 0
_C117: mid_for_y_14 - y_14 >= -28
_C118: x_14 <= 604
_C119: y_14 >= 28
_C12: mid_for_y_1 >= 0
_C120: x_14 >= 0
_C121: mid_x_15 >= 0
_C122: - mid_x_15 - x_15 <= -487
_C123: mid_x_15 - x_15 >= -487
_C124: mid_for_y_15 >= 0
_C125: mid_for_y_15 - y_15 >= -109
_C126: x_15 <= 617
_C127: y_15 >= 109
_C128: x_15 >= 0
_C129: mid_x_16 >= 0
_C13: mid_for_y_1 - y_1 >= -100
_C130: - mid_x_16 - x_16 <= -9
_C131: mid_x_16 - x_16 >= -9
_C132: mid_for_y_16 >= 0
_C133: mid_for_y_16 - y_16 >= -180
_C134: x_16 <= 602
_C135: y_16 >= 180
_C136: x_16 >= 0
_C137: mid_x_17 >= 0
_C138: - mid_x_17 - x_17 <= -426
_C139: mid_x_17 - x_17 >= -426
_C14: x_1 <= 615
_C140: mid_for_y_17 >= 0
_C141: mid_for_y_17 - y_17 >= -29
_C142: x_17 <= 620
_C143: y_17 >= 29
_C144: x_17 >= 0
_C145: mid_x_18 >= 0
_C146: - mid_x_18 - x_18 <= -74
_C147: mid_x_18 - x_18 >= -74
_C148: mid_for_y_18 >= 0
_C149: mid_for_y_18 - y_18 >= -184
_C15: y_1 >= 100
_C150: x_18 <= 612
_C151: y_18 >= 184
_C152: x_18 >= 0
_C153: mid_x_19 >= 0
_C154: - mid_x_19 - x_19 <= -459
_C155: mid_x_19 - x_19 >= -459
_C156: mid_for_y_19 >= 0
_C157: mid_for_y_19 - y_19 >= -38
_C158: x_19 <= 608
_C159: y_19 >= 38
_C16: x_1 >= 0
_C160: x_19 >= 0
_C161: mid_x_20 >= 0
_C162: - mid_x_20 - x_20 <= -570
_C163: mid_x_20 - x_20 >= -570
_C164: mid_for_y_20 >= 0
_C165: mid_for_y_20 - y_20 >= -159
_C166: x_20 <= 604
_C167: y_20 >= 159
_C168: x_20 >= 0
_C169: mid_x_21 >= 0
_C17: mid_x_2 >= 0
_C170: - mid_x_21 - x_21 <= -571
_C171: mid_x_21 - x_21 >= -571
_C172: mid_for_y_21 >= 0
_C173: mid_for_y_21 - y_21 >= -8
_C174: x_21 <= 607
_C175: y_21 >= 8
_C176: x_21 >= 0
_C177: mid_x_22 >= 0
_C178: - mid_x_22 - x_22 <= -552
_C179: mid_x_22 - x_22 >= -552
_C18: - mid_x_2 - x_2 <= -430
_C180: mid_for_y_22 >= 0
_C181: mid_for_y_22 - y_22 >= -78
_C182: x_22 <= 614
_C183: y_22 >= 78
_C184: x_22 >= 0
_C185: mid_x_23 >= 0
_C186: - mid_x_23 - x_23 <= -262
_C187: mid_x_23 - x_23 >= -262
_C188: mid_for_y_23 >= 0
_C189: mid_for_y_23 - y_23 >= -186
_C19: mid_x_2 - x_2 >= -430
_C190: x_23 <= 617
_C191: y_23 >= 186
_C192: x_23 >= 0
_C193: mid_x_24 >= 0
_C194: - mid_x_24 - x_24 <= -576
_C195: mid_x_24 - x_24 >= -576
_C196: mid_for_y_24 >= 0
_C197: mid_for_y_24 - y_24 >= -1
_C198: x_24 <= 600
_C199: y_24 >= 1
_C2: - mid_x_0 - x_0 <= -112
_C20: mid_for_y_2 >= 0
_C200: x_24 >= 0
_C201: - x_5 + x_8 + 100000000 z_x_(8,_5) <= 99999911
_C202: x_5 - x_8 + 100000000 z_x_(5,_8) <= 99999919
_C203: - y_5 + y_8 + 100000000 z_y_(8,_5) <= 99999970
_C204: y_5 - y_8 + 100000000 z_y_(5,_8) <= 99999969
_C205: z_x_(5,_8) + z_x_(8,_5) + z_y_(5,_8) + z_y_(8,_5) >= 1
_C206: - x_1 + x_9 + 100000000 z_x_(9,_1) <= 99999903
_C207: x_1 - x_9 + 100000000 z_x_(1,_9) <= 99999915
_C208: - y_1 + y_9 + 100000000 z_y_(9,_1) <= 99999970
_C209: y_1 - y_9 + 100000000 z_y_(1,_9) <= 99999965
_C21: mid_for_y_2 - y_2 >= -60
_C210: z_x_(1,_9) + z_x_(9,_1) + z_y_(1,_9) + z_y_(9,_1) >= 1
_C211: x_12 - x_9 + 100000000 z_x_(12,_9) <= 99999913
_C212: - x_12 + x_9 + 100000000 z_x_(9,_12) <= 99999903
_C213: y_12 - y_9 + 100000000 z_y_(12,_9) <= 99999969
_C214: - y_12 + y_9 + 100000000 z_y_(9,_12) <= 99999970
_C215: z_x_(12,_9) + z_x_(9,_12) + z_y_(12,_9) + z_y_(9,_12) >= 1
_C216: - x_1 + x_13 + 100000000 z_x_(13,_1) <= 99999914
_C217: x_1 - x_13 + 100000000 z_x_(1,_13) <= 99999915
_C218: - y_1 + y_13 + 100000000 z_y_(13,_1) <= 99999969
_C219: y_1 - y_13 + 100000000 z_y_(1,_13) <= 99999965
_C22: x_2 <= 609
_C220: z_x_(1,_13) + z_x_(13,_1) + z_y_(1,_13) + z_y_(13,_1) >= 1
_C221: x_13 - x_9 + 100000000 z_x_(13,_9) <= 99999914
_C222: - x_13 + x_9 + 100000000 z_x_(9,_13) <= 99999903
_C223: y_13 - y_9 + 100000000 z_y_(13,_9) <= 99999969
_C224: - y_13 + y_9 + 100000000 z_y_(9,_13) <= 99999970
_C225: z_x_(13,_9) + z_x_(9,_13) + z_y_(13,_9) + z_y_(9,_13) >= 1
_C226: - x_10 + x_14 + 100000000 z_x_(14,_10) <= 99999904
_C227: x_10 - x_14 + 100000000 z_x_(10,_14) <= 99999917
_C228: - y_10 + y_14 + 100000000 z_y_(14,_10) <= 99999965
_C229: y_10 - y_14 + 100000000 z_y_(10,_14) <= 99999975
_C23: y_2 >= 60
_C230: z_x_(10,_14) + z_x_(14,_10) + z_y_(10,_14) + z_y_(14,_10) >= 1
_C231: x_17 - x_4 + 100000000 z_x_(17,_4) <= 99999920
_C232: - x_17 + x_4 + 100000000 z_x_(4,_17) <= 99999910
_C233: y_17 - y_4 + 100000000 z_y_(17,_4) <= 99999972
_C234: - y_17 + y_4 + 100000000 z_y_(4,_17) <= 99999966
_C235: z_x_(17,_4) + z_x_(4,_17) + z_y_(17,_4) + z_y_(4,_17) >= 1
_C236: - x_0 + x_18 + 100000000 z_x_(18,_0) <= 99999912
_C237: x_0 - x_18 + 100000000 z_x_(0,_18) <= 99999910
_C238: - y_0 + y_18 + 100000000 z_y_(18,_0) <= 99999974
_C239: y_0 - y_18 + 100000000 z_y_(0,_18) <= 99999968
_C24: x_2 >= 0
_C240: z_x_(0,_18) + z_x_(18,_0) + z_y_(0,_18) + z_y_(18,_0) >= 1
_C241: - x_16 + x_18 + 100000000 z_x_(18,_16) <= 99999912
_C242: x_16 - x_18 + 100000000 z_x_(16,_18) <= 99999902
_C243: - y_16 + y_18 + 100000000 z_y_(18,_16) <= 99999974
_C244: y_16 - y_18 + 100000000 z_y_(16,_18) <= 99999969
_C245: z_x_(16,_18) + z_x_(18,_16) + z_y_(16,_18) + z_y_(18,_16) >= 1
_C246: x_19 - x_2 + 100000000 z_x_(19,_2) <= 99999908
_C247: - x_19 + x_2 + 100000000 z_x_(2,_19) <= 99999909
_C248: y_19 - y_2 + 100000000 z_y_(19,_2) <= 99999972
_C249: - y_19 + y_2 + 100000000 z_y_(2,_19) <= 99999970
_C25: mid_x_3 >= 0
_C250: z_x_(19,_2) + z_x_(2,_19) + z_y_(19,_2) + z_y_(2,_19) >= 1
_C251: x_19 - x_4 + 100000000 z_x_(19,_4) <= 99999908
_C252: - x_19 + x_4 + 100000000 z_x_(4,_19) <= 99999910
_C253: y_19 - y_4 + 100000000 z_y_(19,_4) <= 99999972
_C254: - y_19 + y_4 + 100000000 z_y_(4,_19) <= 99999966
_C255: z_x_(19,_4) + z_x_(4,_19) + z_y_(19,_4) + z_y_(4,_19) >= 1
_C256: - x_17 + x_19 + 100000000 z_x_(19,_17) <= 99999908
_C257: x_17 - x_19 + 100000000 z_x_(17,_19) <= 99999920
_C258: - y_17 + y_19 + 100000000 z_y_(19,_17) <= 99999972
_C259: y_17 - y_19 + 100000000 z_y_(17,_19) <= 99999972
_C26: - mid_x_3 - x_3 <= -148
_C260: z_x_(17,_19) + z_x_(19,_17) + z_y_(17,_19) + z_y_(19,_17) >= 1
_C261: x_20 - x_6 + 100000000 z_x_(20,_6) <= 99999904
_C262: - x_20 + x_6 + 100000000 z_x_(6,_20) <= 99999906
_C263: y_20 - y_6 + 100000000 z_y_(20,_6) <= 99999966
_C264: - y_20 + y_6 + 100000000 z_y_(6,_20) <= 99999966
_C265: z_x_(20,_6) + z_x_(6,_20) + z_y_(20,_6) + z_y_(6,_20) >= 1
_C266: x_22 - x_7 + 100000000 z_x_(22,_7) <= 99999914
_C267: - x_22 + x_7 + 100000000 z_x_(7,_22) <= 99999920
_C268: y_22 - y_7 + 100000000 z_y_(22,_7) <= 99999966
_C269: - y_22 + y_7 + 100000000 z_y_(7,_22) <= 99999968
_C27: mid_x_3 - x_3 >= -148
_C270: z_x_(22,_7) + z_x_(7,_22) + z_y_(22,_7) + z_y_(7,_22) >= 1
_C271: - x_15 + x_22 + 100000000 z_x_(22,_15) <= 99999914
_C272: x_15 - x_22 + 100000000 z_x_(15,_22) <= 99999917
_C273: - y_15 + y_22 + 100000000 z_y_(22,_15) <= 99999966
_C274: y_15 - y_22 + 100000000 z_y_(15,_22) <= 99999969
_C275: z_x_(15,_22) + z_x_(22,_15) + z_y_(15,_22) + z_y_(22,_15) >= 1
_C276: - x_21 + x_24 + 100000000 z_x_(24,_21) <= 99999900
_C277: x_21 - x_24 + 100000000 z_x_(21,_24) <= 99999907
_C278: - y_21 + y_24 + 100000000 z_y_(24,_21) <= 99999973
_C279: y_21 - y_24 + 100000000 z_y_(21,_24) <= 99999974
_C28: mid_for_y_3 >= 0
_C280: z_x_(21,_24) + z_x_(24,_21) + z_y_(21,_24) + z_y_(24,_21) >= 1
_C281: - x_12 + x_14 + 100000000 z_x_(14,_12) <= 99999904
_C282: x_12 - x_14 + 100000000 z_x_(12,_14) <= 99999913
_C283: - y_12 + y_14 + 100000000 z_y_(14,_12) <= 99999965
_C284: y_12 - y_14 + 100000000 z_y_(12,_14) <= 99999969
_C285: z_x_(12,_14) + z_x_(14,_12) + z_y_(12,_14) + z_y_(14,_12) >= 1
_C286: x_17 - x_2 + 100000000 z_x_(17,_2) <= 99999920
_C287: - x_17 + x_2 + 100000000 z_x_(2,_17) <= 99999909
_C288: y_17 - y_2 + 100000000 z_y_(17,_2) <= 99999972
_C289: - y_17 + y_2 + 100000000 z_y_(2,_17) <= 99999970
_C29: mid_for_y_3 - y_3 >= -148
_C290: z_x_(17,_2) + z_x_(2,_17) + z_y_(17,_2) + z_y_(2,_17) >= 1
_C291: - x_1 + x_12 + 100000000 z_x_(12,_1) <= 99999913
_C292: x_1 - x_12 + 100000000 z_x_(1,_12) <= 99999915
_C293: - y_1 + y_12 + 100000000 z_y_(12,_1) <= 99999969
_C294: y_1 - y_12 + 100000000 z_y_(1,_12) <= 99999965
_C295: z_x_(1,_12) + z_x_(12,_1) + z_y_(1,_12) + z_y_(12,_1) >= 1
_C3: mid_x_0 - x_0 >= -112
_C30: x_3 <= 617
_C31: y_3 >= 148
_C32: x_3 >= 0
_C33: mid_x_4 >= 0
_C34: - mid_x_4 - x_4 <= -468
_C35: mid_x_4 - x_4 >= -468
_C36: mid_for_y_4 >= 0
_C37: mid_for_y_4 - y_4 >= -9
_C38: x_4 <= 610
_C39: y_4 >= 9
_C4: mid_for_y_0 >= 0
_C40: x_4 >= 0
_C41: mid_x_5 >= 0
_C42: - mid_x_5 - x_5 <= -117
_C43: mid_x_5 - x_5 >= -117
_C44: mid_for_y_5 >= 0
_C45: mid_for_y_5 - y_5 >= -43
_C46: x_5 <= 619
_C47: y_5 >= 43
_C48: x_5 >= 0
_C49: mid_x_6 >= 0
_C5: mid_for_y_0 - y_0 >= -180
_C50: - mid_x_6 - x_6 <= -580
_C51: mid_x_6 - x_6 >= -580
_C52: mid_for_y_6 >= 0
_C53: mid_for_y_6 - y_6 >= -175
_C54: x_6 <= 606
_C55: y_6 >= 175
_C56: x_6 >= 0
_C57: mid_x_7 >= 0
_C58: - mid_x_7 - x_7 <= -590
_C59: mid_x_7 - x_7 >= -590
_C6: x_0 <= 610
_C60: mid_for_y_7 >= 0
_C61: mid_for_y_7 - y_7 >= -74
_C62: x_7 <= 620
_C63: y_7 >= 74
_C64: x_7 >= 0
_C65: mid_x_8 >= 0
_C66: - mid_x_8 - x_8 <= -134
_C67: mid_x_8 - x_8 >= -134
_C68: mid_for_y_8 >= 0
_C69: mid_for_y_8 - y_8 >= -39
_C7: y_0 >= 180
_C70: x_8 <= 611
_C71: y_8 >= 39
_C72: x_8 >= 0
_C73: mid_x_9 >= 0
_C74: - mid_x_9 - x_9 <= -307
_C75: mid_x_9 - x_9 >= -307
_C76: mid_for_y_9 >= 0
_C77: mid_for_y_9 - y_9 >= -86
_C78: x_9 <= 603
_C79: y_9 >= 86
_C8: x_0 >= 0
_C80: x_9 >= 0
_C81: mid_x_10 >= 0
_C82: - mid_x_10 - x_10 <= -236
_C83: mid_x_10 - x_10 >= -236
_C84: mid_for_y_10 >= 0
_C85: mid_for_y_10 - y_10 >= -13
_C86: x_10 <= 617
_C87: y_10 >= 13
_C88: x_10 >= 0
_C89: mid_x_11 >= 0
_C9: mid_x_1 >= 0
_C90: - mid_x_11 - x_11 <= -388
_C91: mid_x_11 - x_11 >= -388
_C92: mid_for_y_11 >= 0
_C93: mid_for_y_11 - y_11 >= -193
_C94: x_11 <= 615
_C95: y_11 >= 193
_C96: x_11 >= 0
_C97: mid_x_12 >= 0
_C98: - mid_x_12 - x_12 <= -328
_C99: mid_x_12 - x_12 >= -328
Binaries
z_x_(0,_18)
z_x_(1,_12)
z_x_(1,_13)
z_x_(1,_9)
z_x_(10,_14)
z_x_(12,_1)
z_x_(12,_14)
z_x_(12,_9)
z_x_(13,_1)
z_x_(13,_9)
z_x_(14,_10)
z_x_(14,_12)
z_x_(15,_22)
z_x_(16,_18)
z_x_(17,_19)
z_x_(17,_2)
z_x_(17,_4)
z_x_(18,_0)
z_x_(18,_16)
z_x_(19,_17)
z_x_(19,_2)
z_x_(19,_4)
z_x_(2,_17)
z_x_(2,_19)
z_x_(20,_6)
z_x_(21,_24)
z_x_(22,_15)
z_x_(22,_7)
z_x_(24,_21)
z_x_(4,_17)
z_x_(4,_19)
z_x_(5,_8)
z_x_(6,_20)
z_x_(7,_22)
z_x_(8,_5)
z_x_(9,_1)
z_x_(9,_12)
z_x_(9,_13)
z_y_(0,_18)
z_y_(1,_12)
z_y_(1,_13)
z_y_(1,_9)
z_y_(10,_14)
z_y_(12,_1)
z_y_(12,_14)
z_y_(12,_9)
z_y_(13,_1)
z_y_(13,_9)
z_y_(14,_10)
z_y_(14,_12)
z_y_(15,_22)
z_y_(16,_18)
z_y_(17,_19)
z_y_(17,_2)
z_y_(17,_4)
z_y_(18,_0)
z_y_(18,_16)
z_y_(19,_17)
z_y_(19,_2)
z_y_(19,_4)
z_y_(2,_17)
z_y_(2,_19)
z_y_(20,_6)
z_y_(21,_24)
z_y_(22,_15)
z_y_(22,_7)
z_y_(24,_21)
z_y_(4,_17)
z_y_(4,_19)
z_y_(5,_8)
z_y_(6,_20)
z_y_(7,_22)
z_y_(8,_5)
z_y_(9,_1)
z_y_(9,_12)
z_y_(9,_13)
End
